NAME : L0009
COMMENT : Simple 9-City problem
TYPE : TSP
DIMENSION : 9
EDGE_WEIGHT_TYPE : EUC_2D
NODE_COORD_SECTION
1 0000 0000
2 1000 2000
3 1000 3000
4 1000 1000
5 2000 1000
6 2000 2000 
7 2000 3000
8 3000 1000
9 15000 13000 
EOF